\ LP format - for model browsing. Use MPS format to capture full model detail.
Minimize
  0 C0 + 1.4 C1 + 6 C2 + 6.5 C3 + 6.8 C4 + 5.9 C5 + 3.8 C6 + 9.2 C7 + 5.5 C8
   + 2.7 C9 + 3 C10 + 1.4 C11 + 0 C12 + 4.6 C13 + 6.2 C14 + 7.2 C15
   + 5.3 C16 + 4.2 C17 + 9.6 C18 + 5.9 C19 + 2.1 C20 + 2.9 C21 + 6 C22
   + 4.6 C23 + 0 C24 + 4.5 C25 + 3 C26 + 7.9 C27 + 6 C28 + 4.5 C29
   + 7.1 C30 + 7 C31 + 7.1 C32 + 6.5 C33 + 6.2 C34 + 4.5 C35 + 0 C36
   + 3 C37 + 9.1 C38 + 6.6 C39 + 6.2 C40 + 8.3 C41 + 6.3 C42 + 6.5 C43
   + 6.8 C44 + 7.2 C45 + 3 C46 + 3.9 C47 + 0 C48 + 9.5 C49 + 6.8 C50
   + 2.4 C51 + 8.5 C52 + 6.3 C53 + 6.4 C54 + 5.9 C55 + 5.3 C56 + 7.9 C57
   + 9.1 C58 + 9.5 C59 + 0 C60 + 2.2 C61 + 14.1 C62 + 1.8 C63 + 4.7 C64
   + 4.8 C65 + 3.8 C66 + 4.2 C67 + 6 C68 + 6.6 C69 + 6.8 C70 + 2.2 C71
   + 0 C72 + 11.8 C73 + 2.6 C74 + 5.6 C75 + 6.7 C76 + 9.2 C77 + 9.6 C78
   + 4.5 C79 + 6.2 C80 + 2.4 C81 + 14.1 C82 + 11.8 C83 + 0 C84 + 11.1 C85
   + 8.6 C86 + 9.5 C87 + 5.5 C88 + 5.9 C89 + 7.1 C90 + 8.3 C91 + 8.5 C92
   + 1.8 C93 + 2.6 C94 + 11.1 C95 + 0 C96 + 6 C97 + 6.1 C98 + 2.7 C99
   + 2.1 C100 + 7 C101 + 6.3 C102 + 6.3 C103 + 4.7 C104 + 5.6 C105
   + 8.6 C106 + 6 C107 + 0 C108 + 3.5 C109 + 3 C110 + 2.9 C111 + 7.1 C112
   + 6.5 C113 + 6.4 C114 + 4.8 C115 + 6.7 C116 + 9.5 C117 + 6.1 C118
   + 3.5 C119 + 0 C120
Subject To
 R0: C1 + C2 + C3 + C4 + C5 + C6 + C7 + C8 + C9 + C10 = 1
 R1: C11 + C13 + C14 + C15 + C16 + C17 + C18 + C19 + C20 + C21 = 1
 R2: C22 + C23 + C25 + C26 + C27 + C28 + C29 + C30 + C31 + C32 = 1
 R3: C33 + C34 + C35 + C37 + C38 + C39 + C40 + C41 + C42 + C43 = 1
 R4: C44 + C45 + C46 + C47 + C49 + C50 + C51 + C52 + C53 + C54 = 1
 R5: C55 + C56 + C57 + C58 + C59 + C61 + C62 + C63 + C64 + C65 = 1
 R6: C66 + C67 + C68 + C69 + C70 + C71 + C73 + C74 + C75 + C76 = 1
 R7: C77 + C78 + C79 + C80 + C81 + C82 + C83 + C85 + C86 + C87 = 1
 R8: C88 + C89 + C90 + C91 + C92 + C93 + C94 + C95 + C97 + C98 = 1
 R9: C99 + C100 + C101 + C102 + C103 + C104 + C105 + C106 + C107 + C109
   = 1
 R10: C110 + C111 + C112 + C113 + C114 + C115 + C116 + C117 + C118 + C119
   = 1
 R11: C11 + C22 + C33 + C44 + C55 + C66 + C77 + C88 + C99 + C110 = 1
 R12: C1 + C23 + C34 + C45 + C56 + C67 + C78 + C89 + C100 + C111 = 1
 R13: C2 + C13 + C35 + C46 + C57 + C68 + C79 + C90 + C101 + C112 = 1
 R14: C3 + C14 + C25 + C47 + C58 + C69 + C80 + C91 + C102 + C113 = 1
 R15: C4 + C15 + C26 + C37 + C59 + C70 + C81 + C92 + C103 + C114 = 1
 R16: C5 + C16 + C27 + C38 + C49 + C71 + C82 + C93 + C104 + C115 = 1
 R17: C6 + C17 + C28 + C39 + C50 + C61 + C83 + C94 + C105 + C116 = 1
 R18: C7 + C18 + C29 + C40 + C51 + C62 + C73 + C95 + C106 + C117 = 1
 R19: C8 + C19 + C30 + C41 + C52 + C63 + C74 + C85 + C107 + C118 = 1
 R20: C9 + C20 + C31 + C42 + C53 + C64 + C75 + C86 + C97 + C119 = 1
 R21: C10 + C21 + C32 + C43 + C54 + C65 + C76 + C87 + C98 + C109 = 1
 R22: 11 C13 + C121 - C122 <= 10
 R23: 11 C14 + C121 - C123 <= 10
 R24: 11 C15 + C121 - C124 <= 10
 R25: 11 C16 + C121 - C125 <= 10
 R26: 11 C17 + C121 - C126 <= 10
 R27: 11 C18 + C121 - C127 <= 10
 R28: 11 C19 + C121 - C128 <= 10
 R29: 11 C20 + C121 - C129 <= 10
 R30: 11 C21 + C121 - C130 <= 10
 R31: 11 C23 - C121 + C122 <= 10
 R32: 11 C25 + C122 - C123 <= 10
 R33: 11 C26 + C122 - C124 <= 10
 R34: 11 C27 + C122 - C125 <= 10
 R35: 11 C28 + C122 - C126 <= 10
 R36: 11 C29 + C122 - C127 <= 10
 R37: 11 C30 + C122 - C128 <= 10
 R38: 11 C31 + C122 - C129 <= 10
 R39: 11 C32 + C122 - C130 <= 10
 R40: 11 C34 - C121 + C123 <= 10
 R41: 11 C35 - C122 + C123 <= 10
 R42: 11 C37 + C123 - C124 <= 10
 R43: 11 C38 + C123 - C125 <= 10
 R44: 11 C39 + C123 - C126 <= 10
 R45: 11 C40 + C123 - C127 <= 10
 R46: 11 C41 + C123 - C128 <= 10
 R47: 11 C42 + C123 - C129 <= 10
 R48: 11 C43 + C123 - C130 <= 10
 R49: 11 C45 - C121 + C124 <= 10
 R50: 11 C46 - C122 + C124 <= 10
 R51: 11 C47 - C123 + C124 <= 10
 R52: 11 C49 + C124 - C125 <= 10
 R53: 11 C50 + C124 - C126 <= 10
 R54: 11 C51 + C124 - C127 <= 10
 R55: 11 C52 + C124 - C128 <= 10
 R56: 11 C53 + C124 - C129 <= 10
 R57: 11 C54 + C124 - C130 <= 10
 R58: 11 C56 - C121 + C125 <= 10
 R59: 11 C57 - C122 + C125 <= 10
 R60: 11 C58 - C123 + C125 <= 10
 R61: 11 C59 - C124 + C125 <= 10
 R62: 11 C61 + C125 - C126 <= 10
 R63: 11 C62 + C125 - C127 <= 10
 R64: 11 C63 + C125 - C128 <= 10
 R65: 11 C64 + C125 - C129 <= 10
 R66: 11 C65 + C125 - C130 <= 10
 R67: 11 C67 - C121 + C126 <= 10
 R68: 11 C68 - C122 + C126 <= 10
 R69: 11 C69 - C123 + C126 <= 10
 R70: 11 C70 - C124 + C126 <= 10
 R71: 11 C71 - C125 + C126 <= 10
 R72: 11 C73 + C126 - C127 <= 10
 R73: 11 C74 + C126 - C128 <= 10
 R74: 11 C75 + C126 - C129 <= 10
 R75: 11 C76 + C126 - C130 <= 10
 R76: 11 C78 - C121 + C127 <= 10
 R77: 11 C79 - C122 + C127 <= 10
 R78: 11 C80 - C123 + C127 <= 10
 R79: 11 C81 - C124 + C127 <= 10
 R80: 11 C82 - C125 + C127 <= 10
 R81: 11 C83 - C126 + C127 <= 10
 R82: 11 C85 + C127 - C128 <= 10
 R83: 11 C86 + C127 - C129 <= 10
 R84: 11 C87 + C127 - C130 <= 10
 R85: 11 C89 - C121 + C128 <= 10
 R86: 11 C90 - C122 + C128 <= 10
 R87: 11 C91 - C123 + C128 <= 10
 R88: 11 C92 - C124 + C128 <= 10
 R89: 11 C93 - C125 + C128 <= 10
 R90: 11 C94 - C126 + C128 <= 10
 R91: 11 C95 - C127 + C128 <= 10
 R92: 11 C97 + C128 - C129 <= 10
 R93: 11 C98 + C128 - C130 <= 10
 R94: 11 C100 - C121 + C129 <= 10
 R95: 11 C101 - C122 + C129 <= 10
 R96: 11 C102 - C123 + C129 <= 10
 R97: 11 C103 - C124 + C129 <= 10
 R98: 11 C104 - C125 + C129 <= 10
 R99: 11 C105 - C126 + C129 <= 10
 R100: 11 C106 - C127 + C129 <= 10
 R101: 11 C107 - C128 + C129 <= 10
 R102: 11 C109 + C129 - C130 <= 10
 R103: 11 C111 - C121 + C130 <= 10
 R104: 11 C112 - C122 + C130 <= 10
 R105: 11 C113 - C123 + C130 <= 10
 R106: 11 C114 - C124 + C130 <= 10
 R107: 11 C115 - C125 + C130 <= 10
 R108: 11 C116 - C126 + C130 <= 10
 R109: 11 C117 - C127 + C130 <= 10
 R110: 11 C118 - C128 + C130 <= 10
 R111: 11 C119 - C129 + C130 <= 10
Bounds
 C121 <= 10
 C122 <= 10
 C123 <= 10
 C124 <= 10
 C125 <= 10
 C126 <= 10
 C127 <= 10
 C128 <= 10
 C129 <= 10
 C130 <= 10
Binaries
 C0 C1 C2 C3 C4 C5 C6 C7 C8 C9 C10 C11 C12 C13 C14 C15 C16 C17 C18 C19 C20
 C21 C22 C23 C24 C25 C26 C27 C28 C29 C30 C31 C32 C33 C34 C35 C36 C37 C38
 C39 C40 C41 C42 C43 C44 C45 C46 C47 C48 C49 C50 C51 C52 C53 C54 C55 C56
 C57 C58 C59 C60 C61 C62 C63 C64 C65 C66 C67 C68 C69 C70 C71 C72 C73 C74
 C75 C76 C77 C78 C79 C80 C81 C82 C83 C84 C85 C86 C87 C88 C89 C90 C91 C92
 C93 C94 C95 C96 C97 C98 C99 C100 C101 C102 C103 C104 C105 C106 C107 C108
 C109 C110 C111 C112 C113 C114 C115 C116 C117 C118 C119 C120
Generals
 C121 C122 C123 C124 C125 C126 C127 C128 C129 C130
End
